TYPE : Vertex Cover
DIMENSION: 36
EDGE_DATA_SECTION:
0 4
0 7
0 9
0 13
1 5
1 22
1 28
1 31
1 35
2 7
2 23
2 24
2 30
3 10
3 24
3 26
4 14
4 25
4 31
5 11
5 22
5 27
5 28
5 30
5 33
6 9
6 11
6 21
6 28
7 15
7 23
7 31
8 22
8 23
8 26
8 28
8 32
8 35
9 11
9 13
9 28
9 32
10 12
10 21
10 23
10 27
10 33
10 34
11 12
11 29
11 30
11 33
12 13
12 24
12 25
12 28
12 35
13 21
13 24
14 32
15 16
15 22
15 31
16 22
16 24
17 21
18 23
18 28
18 34
19 22
19 28
19 34
20 24
21 28
21 29
21 30
21 34
23 25
24 30
24 33
25 31
26 31
27 35
28 30
28 34
30 35
31 32
-1
VERTEX_DEGREE:
4.0 5.0 4.0 3.0 4.0 7.0 4.0 5.0 6.0 6.0 7.0 7.0 7.0 5.0 2.0 4.0 3.0 1.0 3.0 3.0 1.0 8.0 6.0 6.0 8.0 4.0 3.0 3.0 11.0 2.0 7.0 7.0 4.0 4.0 5.0 5.0
VERTEX_COVER:
0 2 4 5 9 10 11 12 15 21 22 23 24 26 28 31 32 34 35
EOF
